<instance format="XCSP3" type="CSP">
  <variables>
    <var id="x0"> 0 2 9 </var>
    <var id="x1"> 4 5 7 9 </var>
    <var id="x2"> 2 6 9 </var>
    <var id="x3"> 4 6 9 </var>
    <var id="x4"> 0 4 6 9 </var>
    <var id="x5"> 0 2 5 6 </var>
    <var id="x6"> 2 5 6 </var>
    <var id="x7"> 4 6 8 13 </var>
    <var id="x8"> 2 7 8 </var>
    <var id="x9"> 4 15 </var>
    <var id="x10"> 8 11 </var>
    <var id="x11"> 4 6 11 </var>
    <var id="x12"> 4 6 11 </var>
    <var id="x13"> 2 6 </var>
    <var id="x14"> 2 4 6 7 </var>
    <var id="x15"> 1 5 8 9 17 </var>
    <var id="x16"> 1 8 13 16 17 </var>
    <var id="x17"> 9 16 17 </var>
    <var id="x18"> 5 12 17 </var>
    <var id="x19"> 9 13 17 </var>
    <var id="x20"> 1 5 12 17 </var>
    <var id="x21"> 9 12 13 </var>
    <var id="x22"> 5 8 17 </var>
    <var id="x23"> 14 16 </var>
    <var id="x24"> 1 3 4 17 </var>
    <var id="x25"> 1 3 6 11 14 17 </var>
    <var id="x26"> 3 4 11 14 17 </var>
    <var id="x27"> 4 6 </var>
    <var id="x28"> 1 4 6 11 16 </var>
    <var id="x29"> 11 16 17 </var>
    <var id="x30"> 11 16 17 </var>
    <var id="x31"> 1 3 8 9 17 </var>
    <var id="x32"> 3 9 17 </var>
    <var id="x33"> 3 6 17 </var>
    <var id="x34"> 3 9 14 17 </var>
    <var id="x35"> 3 6 8 9 </var>
    <var id="x36"> 2 6 9 </var>
    <var id="x37"> 1 6 8 </var>
    <var id="x38"> 2 3 6 8 17 </var>
    <var id="x39"> 5 7 9 17 </var>
    <var id="x40"> 3 5 6 12 17 </var>
    <var id="x41"> 3 7 9 17 </var>
    <var id="x42"> 3 6 9 12 </var>
    <var id="x43"> 5..7 9 12 </var>
    <var id="x44"> 6 7 9 12 </var>
    <var id="x45"> 7 9 12 17 </var>
    <var id="x46"> 0 2 9 14 </var>
    <var id="x47"> 3 9 17 </var>
    <var id="x48"> 0 3 9 17 </var>
    <var id="x49"> 3 11 </var>
    <var id="x50"> 0 3 6 11 17 </var>
    <var id="x51"> 3 6 9 11 17 </var>
    <var id="x52"> 6 11 </var>
    <var id="x53"> 2 9 11 17 </var>
    <var id="x54"> 4 6 16 17 </var>
    <var id="x55"> 4 9 15..17 </var>
    <var id="x56"> 6 9 11 17 </var>
    <var id="x57"> 4 6 9 11 12 17 </var>
    <var id="x58"> 4 6 9 12 16 </var>
    <var id="x59"> 4 6 9 11 12 15 </var>
    <var id="x60"> 6 11 15 17 </var>
    <var id="x61"> 9 11 16 17 </var>
    <var id="x62"> 9 10 12 </var>
    <var id="x63"> 4 8 10 17 </var>
    <var id="x64"> 5 8..10 17 </var>
    <var id="x65"> 5 8 11 12 </var>
    <var id="x66"> 4 5 11 12 17 </var>
    <var id="x67"> 5 12 17 </var>
    <var id="x68"> 4 5 9 12 </var>
    <var id="x69"> 4 8 10 11 </var>
    <var id="x70"> 12 </var>
    <var id="x71"> 5 7 8 17 </var>
    <var id="x72"> 3 5 8 12 </var>
    <var id="x73"> 3 4 6 12 17 </var>
    <var id="x74"> 3 4 6 8 12 </var>
    <var id="x75"> 4 6 7 12 </var>
    <var id="x76"> 3 5 6 8 17 </var>
    <var id="x77"> 7 12 17 </var>
    <var id="x78"> 0 5 9 17 </var>
    <var id="x79"> 1 3 9 11 17 </var>
    <var as="x79" id="x80"/>
    <var id="x81"> 0 1 3 5 17 </var>
    <var id="x82"> 0 5 9 </var>
    <var id="x83"> 1 11 16 </var>
    <var id="x84"> 3 5 11 17 </var>
    <var id="x85"> 5 9 11 16 17 </var>
    <var id="x86"> 3 4 9 16 17 </var>
    <var id="x87"> 1 3 8 11 16 </var>
    <var id="x88"> 3 4 11 17 </var>
    <var id="x89"> 3 4 9 11 17 </var>
    <var id="x90"> 3 4 8 9 16 </var>
    <var id="x91"> 4 9 11 </var>
    <var as="x61" id="x92"/>
    <var id="x93"> 8 9 11 16 17 </var>
    <var id="x94"> 1 5 7 </var>
    <var id="x95"> 1 10 13 </var>
    <var id="x96"> 1 2 </var>
    <var id="x97"> 7 13 </var>
    <var id="x98"> 0 12 </var>
    <var id="x99"> 0..2 5 12 </var>
    <var id="x100"> 7 12 13 </var>
    <var id="x101"> 2 7 12 13 </var>
    <var id="x102"> 6 10 17 </var>
    <var id="x103"> 0 9 10 17 </var>
    <var id="x104"> 0 9 15 17 </var>
    <var id="x105"> 9 11 17 </var>
    <var id="x106"> 0 6 9 12 </var>
    <var id="x107"> 6 9 11 12 15 </var>
    <var as="x60" id="x108"/>
    <var id="x109"> 9 11 12 17 </var>
    <var id="x110"> 0 2 12 </var>
    <var id="x111"> 3 5 8 12 </var>
    <var id="x112"> 0 3..5 12 17 </var>
    <var id="x113"> 0 2 3 5 12 17 </var>
    <var id="x114"> 0 2 4 5 12 </var>
    <var id="x115"> 4 8 </var>
    <var id="x116"> 2 3 5 8 17 </var>
    <var id="x117"> 2 12 17 </var>
    <var id="x118"> 3 4 7 </var>
    <var id="x119"> 7 10 </var>
    <var id="x120"> 3 6 </var>
    <var id="x121"> 3 4 7 13 </var>
    <var id="x122"> 4 6 7 12 </var>
    <var id="x123"> 4 6 7 12 13 </var>
    <var id="x124"> 4 6 10 13 16 </var>
    <var id="x125"> 7 16 </var>
    <var id="x126"> 0 9 13 16 </var>
    <var id="x127"> 8 13 16 </var>
    <var id="x128"> 0 8 9 </var>
    <var id="x129"> 3 9 11 </var>
    <var id="x130"> 3 8 11 16 </var>
    <var id="x131"> 3 9 11 </var>
    <var id="x132"> 8 9 11 16 </var>
    <var id="x133"> 2 9 13 16 </var>
    <var id="x134"> 1 4 7 9 </var>
    <var id="x135"> 1 4 13 16 </var>
    <var id="x136"> 1 2 9 11 </var>
    <var id="x137"> 1 4 9 11 </var>
    <var id="x138"> 1 2 </var>
    <var id="x139"> 1 4 11 13 16 </var>
    <var id="x140"> 7 9 11 16 </var>
  </variables>
  <constraints>
    <group>
      <allDifferent> %... </allDifferent>
      <args> x0 x1 x2 x3 x4 x5 x6 </args>
      <args> x7 x8 x9 x10 x11 x12 x13 x14 </args>
      <args> x15 x16 x17 x18 x19 x20 x21 x22 </args>
      <args> x23 x24 x25 x26 x27 x28 x29 x30 </args>
      <args> x31 x32 x33 x34 x35 x36 x37 x38 </args>
      <args> x39 x40 x41 x42 x43 x44 x45 </args>
      <args> x46 x47 x48 x49 x50 x51 x52 x53 </args>
      <args> x54 x55 x56 x57 x58 x59 x60 x61 </args>
      <args> x62 x63 x64 x65 x66 x67 x68 x69 </args>
      <args> x70 x71 x72 x73 x74 x75 x76 x77 </args>
      <args> x78 x79 x80 x81 x82 x83 x84 x85 </args>
      <args> x86 x87 x88 x89 x90 x91 x92 x93 </args>
      <args> x94 x95 x96 x97 x98 x99 x100 x101 </args>
      <args> x102 x103 x104 x105 x106 x107 x108 x109 </args>
      <args> x110 x111 x112 x113 x114 x115 x116 x117 </args>
      <args> x118 x119 x120 x121 x122 x123 x124 x125 </args>
      <args> x126 x127 x128 x129 x130 x131 x132 </args>
      <args> x133 x134 x135 x136 x137 x138 x139 x140 </args>
      <args> x0 x23 x46 x62 x70 x110 x126 x133 </args>
      <args> x1 x15 x24 x31 x47 x94 x118 x134 </args>
      <args> x7 x16 x54 x63 x95 x102 x127 x135 </args>
      <args> x8 x39 x64 x71 x78 x103 x119 x128 </args>
      <args> x9 x17 x32 x48 x55 x86 x104 </args>
      <args> x2 x25 x56 x79 x96 x120 x129 x136 </args>
      <args> x10 x49 x65 x72 x87 x111 x130 </args>
      <args> x11 x18 x33 x40 x50 x66 x88 x112 </args>
      <args> x3 x12 x51 x57 x73 x80 x131 x137 </args>
      <args> x19 x26 x34 x41 x89 x97 x105 x121 </args>
      <args> x4 x35 x42 x58 x74 x90 x98 x106 </args>
      <args> x5 x13 x20 x67 x81 x99 x113 x138 </args>
      <args> x14 x27 x36 x43 x68 x82 x114 x122 </args>
      <args> x21 x44 x59 x75 x91 x100 x107 x123 </args>
      <args> x28 x37 x52 x69 x83 x115 x124 x139 </args>
      <args> x6 x22 x38 x60 x76 x84 x108 x116 </args>
      <args> x29 x45 x53 x77 x92 x101 x109 x117 </args>
      <args> x30 x61 x85 x93 x125 x132 x140 </args>
    </group>
  </constraints>
</instance>

